NAME : dataset12
TYPE : TSP
COMMENT : 12 puntos para ejecutar
DIMENSION : 12
EDGE_WEIGHT_TYPE : EUC_2D
NODE_COORD_SECTION
1 1.0 238.6719798190
2 1.0 258.6929635408
3 1.0 43.7109960104
4 1.0 43.1858567870
5 1.0 84.3655632290
6 1.0 43.9163898555
7 1.0 11.3398817572
8 1.0 21.6874790058
9 1.0 1.7221402900
10 1.0 83.9514207825
11 1.0 79.5474740152
12 1.0 33.4700261817
EOF